;; sat

(declare-const x1 sl.list.loc)
(declare-const x2 sl.list.loc)
(declare-const x3 sl.list.loc)
(declare-const x4 sl.list.loc)
(declare-const x5 sl.list.loc)
(declare-const x6 sl.list.loc)
(declare-const x7 sl.list.loc)
(declare-const x8 sl.list.loc)
(declare-const x9 sl.list.loc)
(declare-const x10 sl.list.loc)
(declare-const x11 sl.list.loc)
(declare-const x12 sl.list.loc)
(declare-const x13 sl.list.loc)
(declare-const x14 sl.list.loc)
(declare-const x15 sl.list.loc)
(declare-const x16 sl.list.loc)
(declare-const x17 sl.list.loc)
(declare-const x18 sl.list.loc)
(declare-const x19 sl.list.loc)

(assert (sl.sepcon (sl.sepcon (sl.sepcon (sl.sepcon (sl.sepcon (sl.sepcon (sl.sepcon (sl.sepcon (sl.sepcon (sl.sepcon (sl.sepcon (sl.sepcon (sl.sepcon (sl.sepcon (sl.sepcon (sl.sepcon (sl.sepcon (sl.list.eq sl.list.null sl.list.null)
 (sl.list.neq x6 x15)
)
 (sl.list.neq x3 x14)
)
 (sl.list.neq x7 x19)
)
 (sl.list.neq x7 x13)
)
 (sl.list.neq x9 x11)
)
 (sl.list.neq x12 x17)
)
 (sl.list.neq x2 x6)
)
 (sl.list.neq x2 x16)
)
 (sl.list.neq x2 x15)
)
 (sl.list.neq x2 x14)
)
 (sl.list.neq x8 x13)
)
 (sl.list.neq x1 x18)
)
 (sl.list.neq x1 x12)
)
 (sl.list.neq x4 x8)
)
 (sl.list.neq x4 x10)
)
 (sl.list.neq x13 x15)
)
 (sl.sepcon (sl.sepcon (sl.sepcon (sl.sepcon (sl.sepcon (sl.sepcon (sl.sepcon (sl.sepcon (sl.sepcon (sl.sepcon (sl.sepcon (sl.sepcon (sl.sepcon (sl.sepcon (sl.sepcon (sl.sepcon (sl.sepcon (sl.sepcon (sl.sepcon (sl.sepcon (sl.list.seg x5 x12)
 (sl.list.seg x5 x16)
)
 (sl.list.seg x5 x7)
)
 (sl.list.seg x5 x8)
)
 (sl.list.seg x19 x2)
)
 (sl.list.seg x19 x13)
)
 (sl.list.seg x16 x12)
)
 (sl.list.seg x13 x14)
)
 (sl.list.seg x10 x1)
)
 (sl.list.seg x1 x2)
)
 (sl.list.seg x1 x17)
)
 (sl.list.seg x8 x17)
)
 (sl.list.seg x15 x7)
)
 (sl.list.seg x14 x19)
)
 (sl.list.seg x12 x16)
)
 (sl.list.seg x12 x9)
)
 (sl.list.seg x3 x4)
)
 (sl.list.seg x3 x8)
)
 (sl.list.seg x11 x19)
)
 (sl.list.seg x11 x4)
)
 (sl.list.seg x6 x3)
)
)
)

